% Instance for pentominoes model generated using https://github.com/zayenz/minizinc-pentominoes-generator
% Instance generated for board size 10 with 10 tiles using 42 as seed
% Generated board
%    5552244444
%    555664444b
%    1366666bbb
%    136666bbbb
%    13669999bb
%    666999999b
%    6669999888
%    6688888878
%    6688888877
%    6688888877

size = 10;
tiles = 10;
expressions = [
    "( ([2 3 4 5 6 7 8 9 10 11]* 1{1} [2 3 4 5 6 7 8 9 10 11]{9} [2 3 4 5 6 7 8 9 10 11] 1{1} [2 3 4 5 6 7 8 9 10 11]{9} [2 3 4 5 6 7 8 9 10 11] 1{1} [2 3 4 5 6 7 8 9 10 11]*) | ([2 3 4 5 6 7 8 9 10 11]* 1{3} [2 3 4 5 6 7 8 9 10 11]*) | ([2 3 4 5 6 7 8 9 10 11]* 1{1} [2 3 4 5 6 7 8 9 10 11] [2 3 4 5 6 7 8 9 10 11]{9} 1{1} [2 3 4 5 6 7 8 9 10 11] [2 3 4 5 6 7 8 9 10 11]{9} 1{1} [2 3 4 5 6 7 8 9 10 11]*) )",
    "( ([1 3 4 5 6 7 8 9 10 11]* 2{2} [1 3 4 5 6 7 8 9 10 11]*) | ([1 3 4 5 6 7 8 9 10 11]* 2{1} [1 3 4 5 6 7 8 9 10 11] [1 3 4 5 6 7 8 9 10 11]{9} 2{1} [1 3 4 5 6 7 8 9 10 11]*) | ([1 3 4 5 6 7 8 9 10 11]* 2{1} [1 3 4 5 6 7 8 9 10 11]{9} [1 3 4 5 6 7 8 9 10 11] 2{1} [1 3 4 5 6 7 8 9 10 11]*) )",
    "( ([1 2 4 5 6 7 8 9 10 11]* 3{1} [1 2 4 5 6 7 8 9 10 11]{8} [1 2 4 5 6 7 8 9 10 11] [1 2 4 5 6 7 8 9 10 11]{1} 3{1} [1 2 4 5 6 7 8 9 10 11]{8} [1 2 4 5 6 7 8 9 10 11] [1 2 4 5 6 7 8 9 10 11]{1} 3{1} [1 2 4 5 6 7 8 9 10 11]*) | ([1 2 4 5 6 7 8 9 10 11]* 3{3} [1 2 4 5 6 7 8 9 10 11]*) | ([1 2 4 5 6 7 8 9 10 11]* 3{1} [1 2 4 5 6 7 8 9 10 11]{1} [1 2 4 5 6 7 8 9 10 11] [1 2 4 5 6 7 8 9 10 11]{8} 3{1} [1 2 4 5 6 7 8 9 10 11]{1} [1 2 4 5 6 7 8 9 10 11] [1 2 4 5 6 7 8 9 10 11]{8} 3{1} [1 2 4 5 6 7 8 9 10 11]*) )",
    "( ([1 2 3 5 6 7 8 9 10 11]* 4{5} [1 2 3 5 6 7 8 9 10 11] [1 2 3 5 6 7 8 9 10 11]{5} 4{4} [1 2 3 5 6 7 8 9 10 11]*) | ([1 2 3 5 6 7 8 9 10 11]* 4{2} [1 2 3 5 6 7 8 9 10 11] [1 2 3 5 6 7 8 9 10 11]{8} 4{2} [1 2 3 5 6 7 8 9 10 11] [1 2 3 5 6 7 8 9 10 11]{8} 4{2} [1 2 3 5 6 7 8 9 10 11] [1 2 3 5 6 7 8 9 10 11]{8} 4{2} [1 2 3 5 6 7 8 9 10 11] [1 2 3 5 6 7 8 9 10 11]{9} 4{1} [1 2 3 5 6 7 8 9 10 11]*) | ([1 2 3 5 6 7 8 9 10 11]* 4{4} [1 2 3 5 6 7 8 9 10 11]{5} [1 2 3 5 6 7 8 9 10 11] 4{5} [1 2 3 5 6 7 8 9 10 11]*) | ([1 2 3 5 6 7 8 9 10 11]* 4{1} [1 2 3 5 6 7 8 9 10 11]{9} [1 2 3 5 6 7 8 9 10 11] 4{2} [1 2 3 5 6 7 8 9 10 11]{8} [1 2 3 5 6 7 8 9 10 11] 4{2} [1 2 3 5 6 7 8 9 10 11]{8} [1 2 3 5 6 7 8 9 10 11] 4{2} [1 2 3 5 6 7 8 9 10 11]{8} [1 2 3 5 6 7 8 9 10 11] 4{2} [1 2 3 5 6 7 8 9 10 11]*) | ([1 2 3 5 6 7 8 9 10 11]* 4{5} [1 2 3 5 6 7 8 9 10 11]{5} [1 2 3 5 6 7 8 9 10 11] [1 2 3 5 6 7 8 9 10 11]{1} 4{4} [1 2 3 5 6 7 8 9 10 11]*) | ([1 2 3 5 6 7 8 9 10 11]* 4{2} [1 2 3 5 6 7 8 9 10 11]{8} [1 2 3 5 6 7 8 9 10 11] 4{2} [1 2 3 5 6 7 8 9 10 11]{8} [1 2 3 5 6 7 8 9 10 11] 4{2} [1 2 3 5 6 7 8 9 10 11]{8} [1 2 3 5 6 7 8 9 10 11] 4{2} [1 2 3 5 6 7 8 9 10 11]{8} [1 2 3 5 6 7 8 9 10 11] 4{1} [1 2 3 5 6 7 8 9 10 11]*) | ([1 2 3 5 6 7 8 9 10 11]* 4{4} [1 2 3 5 6 7 8 9 10 11]{1} [1 2 3 5 6 7 8 9 10 11] [1 2 3 5 6 7 8 9 10 11]{5} 4{5} [1 2 3 5 6 7 8 9 10 11]*) | ([1 2 3 5 6 7 8 9 10 11]* 4{1} [1 2 3 5 6 7 8 9 10 11] [1 2 3 5 6 7 8 9 10 11]{8} 4{2} [1 2 3 5 6 7 8 9 10 11] [1 2 3 5 6 7 8 9 10 11]{8} 4{2} [1 2 3 5 6 7 8 9 10 11] [1 2 3 5 6 7 8 9 10 11]{8} 4{2} [1 2 3 5 6 7 8 9 10 11] [1 2 3 5 6 7 8 9 10 11]{8} 4{2} [1 2 3 5 6 7 8 9 10 11]*) )",
    "( ([1 2 3 4 6 7 8 9 10 11]* 5{3} [1 2 3 4 6 7 8 9 10 11]{7} [1 2 3 4 6 7 8 9 10 11] 5{3} [1 2 3 4 6 7 8 9 10 11]*) | ([1 2 3 4 6 7 8 9 10 11]* 5{2} [1 2 3 4 6 7 8 9 10 11] [1 2 3 4 6 7 8 9 10 11]{8} 5{2} [1 2 3 4 6 7 8 9 10 11] [1 2 3 4 6 7 8 9 10 11]{8} 5{2} [1 2 3 4 6 7 8 9 10 11]*) | ([1 2 3 4 6 7 8 9 10 11]* 5{3} [1 2 3 4 6 7 8 9 10 11] [1 2 3 4 6 7 8 9 10 11]{7} 5{3} [1 2 3 4 6 7 8 9 10 11]*) | ([1 2 3 4 6 7 8 9 10 11]* 5{2} [1 2 3 4 6 7 8 9 10 11]{8} [1 2 3 4 6 7 8 9 10 11] 5{2} [1 2 3 4 6 7 8 9 10 11]{8} [1 2 3 4 6 7 8 9 10 11] 5{2} [1 2 3 4 6 7 8 9 10 11]*) )",
    "( ([1 2 3 4 5 7 8 9 10 11]* 6{2} [1 2 3 4 5 7 8 9 10 11]{5} [1 2 3 4 5 7 8 9 10 11] [1 2 3 4 5 7 8 9 10 11]{2} 6{5} [1 2 3 4 5 7 8 9 10 11]{3} [1 2 3 4 5 7 8 9 10 11] [1 2 3 4 5 7 8 9 10 11]{2} 6{4} [1 2 3 4 5 7 8 9 10 11]{4} [1 2 3 4 5 7 8 9 10 11] [1 2 3 4 5 7 8 9 10 11]{2} 6{2} [1 2 3 4 5 7 8 9 10 11]{6} [1 2 3 4 5 7 8 9 10 11] 6{3} [1 2 3 4 5 7 8 9 10 11]{7} [1 2 3 4 5 7 8 9 10 11] 6{3} [1 2 3 4 5 7 8 9 10 11]{7} [1 2 3 4 5 7 8 9 10 11] 6{2} [1 2 3 4 5 7 8 9 10 11]{8} [1 2 3 4 5 7 8 9 10 11] 6{2} [1 2 3 4 5 7 8 9 10 11]{8} [1 2 3 4 5 7 8 9 10 11] 6{2} [1 2 3 4 5 7 8 9 10 11]*) | ([1 2 3 4 5 7 8 9 10 11]* 6{5} [1 2 3 4 5 7 8 9 10 11]{5} [1 2 3 4 5 7 8 9 10 11] 6{5} [1 2 3 4 5 7 8 9 10 11]{5} [1 2 3 4 5 7 8 9 10 11] [1 2 3 4 5 7 8 9 10 11]{3} 6{5} [1 2 3 4 5 7 8 9 10 11]{2} [1 2 3 4 5 7 8 9 10 11] [1 2 3 4 5 7 8 9 10 11]{5} 6{4} [1 2 3 4 5 7 8 9 10 11]{1} [1 2 3 4 5 7 8 9 10 11] [1 2 3 4 5 7 8 9 10 11]{6} 6{3} [1 2 3 4 5 7 8 9 10 11]{1} [1 2 3 4 5 7 8 9 10 11] [1 2 3 4 5 7 8 9 10 11]{6} 6{2} [1 2 3 4 5 7 8 9 10 11]{2} [1 2 3 4 5 7 8 9 10 11] [1 2 3 4 5 7 8 9 10 11]{7} 6{1} [1 2 3 4 5 7 8 9 10 11]*) | ([1 2 3 4 5 7 8 9 10 11]* 6{2} [1 2 3 4 5 7 8 9 10 11] [1 2 3 4 5 7 8 9 10 11]{8} 6{2} [1 2 3 4 5 7 8 9 10 11] [1 2 3 4 5 7 8 9 10 11]{8} 6{2} [1 2 3 4 5 7 8 9 10 11] [1 2 3 4 5 7 8 9 10 11]{7} 6{3} [1 2 3 4 5 7 8 9 10 11] [1 2 3 4 5 7 8 9 10 11]{7} 6{3} [1 2 3 4 5 7 8 9 10 11] [1 2 3 4 5 7 8 9 10 11]{6} 6{2} [1 2 3 4 5 7 8 9 10 11]{2} [1 2 3 4 5 7 8 9 10 11] [1 2 3 4 5 7 8 9 10 11]{4} 6{4} [1 2 3 4 5 7 8 9 10 11]{2} [1 2 3 4 5 7 8 9 10 11] [1 2 3 4 5 7 8 9 10 11]{3} 6{5} [1 2 3 4 5 7 8 9 10 11]{2} [1 2 3 4 5 7 8 9 10 11] [1 2 3 4 5 7 8 9 10 11]{5} 6{2} [1 2 3 4 5 7 8 9 10 11]*) | ([1 2 3 4 5 7 8 9 10 11]* 6{1} [1 2 3 4 5 7 8 9 10 11]{7} [1 2 3 4 5 7 8 9 10 11] [1 2 3 4 5 7 8 9 10 11]{2} 6{2} [1 2 3 4 5 7 8 9 10 11]{6} [1 2 3 4 5 7 8 9 10 11] [1 2 3 4 5 7 8 9 10 11]{1} 6{3} [1 2 3 4 5 7 8 9 10 11]{6} [1 2 3 4 5 7 8 9 10 11] [1 2 3 4 5 7 8 9 10 11]{1} 6{4} [1 2 3 4 5 7 8 9 10 11]{5} [1 2 3 4 5 7 8 9 10 11] [1 2 3 4 5 7 8 9 10 11]{2} 6{5} [1 2 3 4 5 7 8 9 10 11]{3} [1 2 3 4 5 7 8 9 10 11] [1 2 3 4 5 7 8 9 10 11]{5} 6{5} [1 2 3 4 5 7 8 9 10 11] [1 2 3 4 5 7 8 9 10 11]{5} 6{5} [1 2 3 4 5 7 8 9 10 11]*) | ([1 2 3 4 5 7 8 9 10 11]* 6{2} [1 2 3 4 5 7 8 9 10 11]{3} [1 2 3 4 5 7 8 9 10 11] [1 2 3 4 5 7 8 9 10 11]{3} 6{5} [1 2 3 4 5 7 8 9 10 11]{2} [1 2 3 4 5 7 8 9 10 11] [1 2 3 4 5 7 8 9 10 11]{4} 6{4} [1 2 3 4 5 7 8 9 10 11]{2} [1 2 3 4 5 7 8 9 10 11] [1 2 3 4 5 7 8 9 10 11]{6} 6{2} [1 2 3 4 5 7 8 9 10 11]{2} [1 2 3 4 5 7 8 9 10 11] [1 2 3 4 5 7 8 9 10 11]{7} 6{3} [1 2 3 4 5 7 8 9 10 11] [1 2 3 4 5 7 8 9 10 11]{7} 6{3} [1 2 3 4 5 7 8 9 10 11] [1 2 3 4 5 7 8 9 10 11]{8} 6{2} [1 2 3 4 5 7 8 9 10 11] [1 2 3 4 5 7 8 9 10 11]{8} 6{2} [1 2 3 4 5 7 8 9 10 11] [1 2 3 4 5 7 8 9 10 11]{8} 6{2} [1 2 3 4 5 7 8 9 10 11]*) | ([1 2 3 4 5 7 8 9 10 11]* 6{5} [1 2 3 4 5 7 8 9 10 11] [1 2 3 4 5 7 8 9 10 11]{5} 6{5} [1 2 3 4 5 7 8 9 10 11] [1 2 3 4 5 7 8 9 10 11]{2} 6{5} [1 2 3 4 5 7 8 9 10 11]{3} [1 2 3 4 5 7 8 9 10 11] [1 2 3 4 5 7 8 9 10 11]{1} 6{4} [1 2 3 4 5 7 8 9 10 11]{5} [1 2 3 4 5 7 8 9 10 11] [1 2 3 4 5 7 8 9 10 11]{1} 6{3} [1 2 3 4 5 7 8 9 10 11]{6} [1 2 3 4 5 7 8 9 10 11] [1 2 3 4 5 7 8 9 10 11]{2} 6{2} [1 2 3 4 5 7 8 9 10 11]{6} [1 2 3 4 5 7 8 9 10 11] [1 2 3 4 5 7 8 9 10 11]{2} 6{1} [1 2 3 4 5 7 8 9 10 11]*) | ([1 2 3 4 5 7 8 9 10 11]* 6{2} [1 2 3 4 5 7 8 9 10 11]{8} [1 2 3 4 5 7 8 9 10 11] 6{2} [1 2 3 4 5 7 8 9 10 11]{8} [1 2 3 4 5 7 8 9 10 11] 6{2} [1 2 3 4 5 7 8 9 10 11]{8} [1 2 3 4 5 7 8 9 10 11] 6{3} [1 2 3 4 5 7 8 9 10 11]{7} [1 2 3 4 5 7 8 9 10 11] 6{3} [1 2 3 4 5 7 8 9 10 11]{7} [1 2 3 4 5 7 8 9 10 11] [1 2 3 4 5 7 8 9 10 11]{2} 6{2} [1 2 3 4 5 7 8 9 10 11]{6} [1 2 3 4 5 7 8 9 10 11] [1 2 3 4 5 7 8 9 10 11]{2} 6{4} [1 2 3 4 5 7 8 9 10 11]{4} [1 2 3 4 5 7 8 9 10 11] [1 2 3 4 5 7 8 9 10 11]{2} 6{5} [1 2 3 4 5 7 8 9 10 11]{3} [1 2 3 4 5 7 8 9 10 11] [1 2 3 4 5 7 8 9 10 11]{3} 6{2} [1 2 3 4 5 7 8 9 10 11]*) | ([1 2 3 4 5 7 8 9 10 11]* 6{1} [1 2 3 4 5 7 8 9 10 11]{2} [1 2 3 4 5 7 8 9 10 11] [1 2 3 4 5 7 8 9 10 11]{6} 6{2} [1 2 3 4 5 7 8 9 10 11]{2} [1 2 3 4 5 7 8 9 10 11] [1 2 3 4 5 7 8 9 10 11]{6} 6{3} [1 2 3 4 5 7 8 9 10 11]{1} [1 2 3 4 5 7 8 9 10 11] [1 2 3 4 5 7 8 9 10 11]{5} 6{4} [1 2 3 4 5 7 8 9 10 11]{1} [1 2 3 4 5 7 8 9 10 11] [1 2 3 4 5 7 8 9 10 11]{3} 6{5} [1 2 3 4 5 7 8 9 10 11]{2} [1 2 3 4 5 7 8 9 10 11] 6{5} [1 2 3 4 5 7 8 9 10 11]{5} [1 2 3 4 5 7 8 9 10 11] 6{5} [1 2 3 4 5 7 8 9 10 11]*) )",
    "( ([1 2 3 4 5 6 8 9 10 11]* 7{1} [1 2 3 4 5 6 8 9 10 11]{1} [1 2 3 4 5 6 8 9 10 11] [1 2 3 4 5 6 8 9 10 11]{8} 7{2} [1 2 3 4 5 6 8 9 10 11] [1 2 3 4 5 6 8 9 10 11]{8} 7{2} [1 2 3 4 5 6 8 9 10 11]*) | ([1 2 3 4 5 6 8 9 10 11]* 7{3} [1 2 3 4 5 6 8 9 10 11]{7} [1 2 3 4 5 6 8 9 10 11] 7{2} [1 2 3 4 5 6 8 9 10 11]*) | ([1 2 3 4 5 6 8 9 10 11]* 7{2} [1 2 3 4 5 6 8 9 10 11]{8} [1 2 3 4 5 6 8 9 10 11] 7{2} [1 2 3 4 5 6 8 9 10 11]{8} [1 2 3 4 5 6 8 9 10 11] [1 2 3 4 5 6 8 9 10 11]{1} 7{1} [1 2 3 4 5 6 8 9 10 11]*) | ([1 2 3 4 5 6 8 9 10 11]* 7{2} [1 2 3 4 5 6 8 9 10 11] [1 2 3 4 5 6 8 9 10 11]{7} 7{3} [1 2 3 4 5 6 8 9 10 11]*) | ([1 2 3 4 5 6 8 9 10 11]* 7{1} [1 2 3 4 5 6 8 9 10 11]{8} [1 2 3 4 5 6 8 9 10 11] 7{2} [1 2 3 4 5 6 8 9 10 11]{8} [1 2 3 4 5 6 8 9 10 11] 7{2} [1 2 3 4 5 6 8 9 10 11]*) | ([1 2 3 4 5 6 8 9 10 11]* 7{3} [1 2 3 4 5 6 8 9 10 11] [1 2 3 4 5 6 8 9 10 11]{8} 7{2} [1 2 3 4 5 6 8 9 10 11]*) | ([1 2 3 4 5 6 8 9 10 11]* 7{2} [1 2 3 4 5 6 8 9 10 11] [1 2 3 4 5 6 8 9 10 11]{8} 7{2} [1 2 3 4 5 6 8 9 10 11] [1 2 3 4 5 6 8 9 10 11]{8} 7{1} [1 2 3 4 5 6 8 9 10 11]*) | ([1 2 3 4 5 6 8 9 10 11]* 7{2} [1 2 3 4 5 6 8 9 10 11]{8} [1 2 3 4 5 6 8 9 10 11] 7{3} [1 2 3 4 5 6 8 9 10 11]*) )",
    "( ([1 2 3 4 5 6 7 9 10 11]* 8{3} [1 2 3 4 5 6 7 9 10 11] [1 2 3 4 5 6 7 9 10 11]{2} 8{6} [1 2 3 4 5 6 7 9 10 11]{1} 8{1} [1 2 3 4 5 6 7 9 10 11] [1 2 3 4 5 6 7 9 10 11]{2} 8{6} [1 2 3 4 5 6 7 9 10 11]{2} [1 2 3 4 5 6 7 9 10 11] [1 2 3 4 5 6 7 9 10 11]{2} 8{6} [1 2 3 4 5 6 7 9 10 11]*) | ([1 2 3 4 5 6 7 9 10 11]* 8{3} [1 2 3 4 5 6 7 9 10 11]{7} [1 2 3 4 5 6 7 9 10 11] 8{3} [1 2 3 4 5 6 7 9 10 11]{7} [1 2 3 4 5 6 7 9 10 11] 8{3} [1 2 3 4 5 6 7 9 10 11]{7} [1 2 3 4 5 6 7 9 10 11] 8{3} [1 2 3 4 5 6 7 9 10 11]{7} [1 2 3 4 5 6 7 9 10 11] 8{3} [1 2 3 4 5 6 7 9 10 11]{7} [1 2 3 4 5 6 7 9 10 11] 8{4} [1 2 3 4 5 6 7 9 10 11]{6} [1 2 3 4 5 6 7 9 10 11] [1 2 3 4 5 6 7 9 10 11]{3} 8{1} [1 2 3 4 5 6 7 9 10 11]{6} [1 2 3 4 5 6 7 9 10 11] [1 2 3 4 5 6 7 9 10 11]{2} 8{2} [1 2 3 4 5 6 7 9 10 11]*) | ([1 2 3 4 5 6 7 9 10 11]* 8{6} [1 2 3 4 5 6 7 9 10 11]{2} [1 2 3 4 5 6 7 9 10 11] [1 2 3 4 5 6 7 9 10 11]{2} 8{6} [1 2 3 4 5 6 7 9 10 11]{2} [1 2 3 4 5 6 7 9 10 11] 8{1} [1 2 3 4 5 6 7 9 10 11]{1} 8{6} [1 2 3 4 5 6 7 9 10 11]{2} [1 2 3 4 5 6 7 9 10 11] 8{3} [1 2 3 4 5 6 7 9 10 11]*) | ([1 2 3 4 5 6 7 9 10 11]* 8{2} [1 2 3 4 5 6 7 9 10 11]{2} [1 2 3 4 5 6 7 9 10 11] [1 2 3 4 5 6 7 9 10 11]{6} 8{1} [1 2 3 4 5 6 7 9 10 11]{3} [1 2 3 4 5 6 7 9 10 11] [1 2 3 4 5 6 7 9 10 11]{6} 8{4} [1 2 3 4 5 6 7 9 10 11] [1 2 3 4 5 6 7 9 10 11]{7} 8{3} [1 2 3 4 5 6 7 9 10 11] [1 2 3 4 5 6 7 9 10 11]{7} 8{3} [1 2 3 4 5 6 7 9 10 11] [1 2 3 4 5 6 7 9 10 11]{7} 8{3} [1 2 3 4 5 6 7 9 10 11] [1 2 3 4 5 6 7 9 10 11]{7} 8{3} [1 2 3 4 5 6 7 9 10 11] [1 2 3 4 5 6 7 9 10 11]{7} 8{3} [1 2 3 4 5 6 7 9 10 11]*) | ([1 2 3 4 5 6 7 9 10 11]* 8{3} [1 2 3 4 5 6 7 9 10 11]{7} [1 2 3 4 5 6 7 9 10 11] 8{1} [1 2 3 4 5 6 7 9 10 11]{1} 8{6} [1 2 3 4 5 6 7 9 10 11]{2} [1 2 3 4 5 6 7 9 10 11] [1 2 3 4 5 6 7 9 10 11]{2} 8{6} [1 2 3 4 5 6 7 9 10 11]{2} [1 2 3 4 5 6 7 9 10 11] [1 2 3 4 5 6 7 9 10 11]{2} 8{6} [1 2 3 4 5 6 7 9 10 11]*) | ([1 2 3 4 5 6 7 9 10 11]* 8{3} [1 2 3 4 5 6 7 9 10 11] [1 2 3 4 5 6 7 9 10 11]{7} 8{3} [1 2 3 4 5 6 7 9 10 11] [1 2 3 4 5 6 7 9 10 11]{7} 8{3} [1 2 3 4 5 6 7 9 10 11] [1 2 3 4 5 6 7 9 10 11]{7} 8{3} [1 2 3 4 5 6 7 9 10 11] [1 2 3 4 5 6 7 9 10 11]{7} 8{3} [1 2 3 4 5 6 7 9 10 11] [1 2 3 4 5 6 7 9 10 11]{6} 8{4} [1 2 3 4 5 6 7 9 10 11] [1 2 3 4 5 6 7 9 10 11]{6} 8{1} [1 2 3 4 5 6 7 9 10 11]{3} [1 2 3 4 5 6 7 9 10 11] [1 2 3 4 5 6 7 9 10 11]{6} 8{2} [1 2 3 4 5 6 7 9 10 11]*) | ([1 2 3 4 5 6 7 9 10 11]* 8{6} [1 2 3 4 5 6 7 9 10 11]{2} [1 2 3 4 5 6 7 9 10 11] [1 2 3 4 5 6 7 9 10 11]{2} 8{6} [1 2 3 4 5 6 7 9 10 11]{2} [1 2 3 4 5 6 7 9 10 11] [1 2 3 4 5 6 7 9 10 11]{2} 8{6} [1 2 3 4 5 6 7 9 10 11]{1} 8{1} [1 2 3 4 5 6 7 9 10 11] [1 2 3 4 5 6 7 9 10 11]{7} 8{3} [1 2 3 4 5 6 7 9 10 11]*) | ([1 2 3 4 5 6 7 9 10 11]* 8{2} [1 2 3 4 5 6 7 9 10 11]{6} [1 2 3 4 5 6 7 9 10 11] [1 2 3 4 5 6 7 9 10 11]{3} 8{1} [1 2 3 4 5 6 7 9 10 11]{6} [1 2 3 4 5 6 7 9 10 11] 8{4} [1 2 3 4 5 6 7 9 10 11]{6} [1 2 3 4 5 6 7 9 10 11] 8{3} [1 2 3 4 5 6 7 9 10 11]{7} [1 2 3 4 5 6 7 9 10 11] 8{3} [1 2 3 4 5 6 7 9 10 11]{7} [1 2 3 4 5 6 7 9 10 11] 8{3} [1 2 3 4 5 6 7 9 10 11]{7} [1 2 3 4 5 6 7 9 10 11] 8{3} [1 2 3 4 5 6 7 9 10 11]{7} [1 2 3 4 5 6 7 9 10 11] 8{3} [1 2 3 4 5 6 7 9 10 11]*) )",
    "( ([1 2 3 4 5 6 7 8 10 11]* 9{4} [1 2 3 4 5 6 7 8 10 11]{2} [1 2 3 4 5 6 7 8 10 11] [1 2 3 4 5 6 7 8 10 11]{3} 9{6} [1 2 3 4 5 6 7 8 10 11]{1} [1 2 3 4 5 6 7 8 10 11] [1 2 3 4 5 6 7 8 10 11]{3} 9{4} [1 2 3 4 5 6 7 8 10 11]*) | ([1 2 3 4 5 6 7 8 10 11]* 9{2} [1 2 3 4 5 6 7 8 10 11]{5} [1 2 3 4 5 6 7 8 10 11] [1 2 3 4 5 6 7 8 10 11]{3} 9{3} [1 2 3 4 5 6 7 8 10 11]{4} [1 2 3 4 5 6 7 8 10 11] [1 2 3 4 5 6 7 8 10 11]{3} 9{3} [1 2 3 4 5 6 7 8 10 11]{4} [1 2 3 4 5 6 7 8 10 11] [1 2 3 4 5 6 7 8 10 11]{3} 9{3} [1 2 3 4 5 6 7 8 10 11]{4} [1 2 3 4 5 6 7 8 10 11] [1 2 3 4 5 6 7 8 10 11]{4} 9{2} [1 2 3 4 5 6 7 8 10 11]{4} [1 2 3 4 5 6 7 8 10 11] [1 2 3 4 5 6 7 8 10 11]{4} 9{1} [1 2 3 4 5 6 7 8 10 11]*) | ([1 2 3 4 5 6 7 8 10 11]* 9{4} [1 2 3 4 5 6 7 8 10 11]{3} [1 2 3 4 5 6 7 8 10 11] [1 2 3 4 5 6 7 8 10 11]{1} 9{6} [1 2 3 4 5 6 7 8 10 11]{3} [1 2 3 4 5 6 7 8 10 11] [1 2 3 4 5 6 7 8 10 11]{2} 9{4} [1 2 3 4 5 6 7 8 10 11]*) | ([1 2 3 4 5 6 7 8 10 11]* 9{1} [1 2 3 4 5 6 7 8 10 11]{4} [1 2 3 4 5 6 7 8 10 11] [1 2 3 4 5 6 7 8 10 11]{4} 9{2} [1 2 3 4 5 6 7 8 10 11]{4} [1 2 3 4 5 6 7 8 10 11] [1 2 3 4 5 6 7 8 10 11]{4} 9{3} [1 2 3 4 5 6 7 8 10 11]{3} [1 2 3 4 5 6 7 8 10 11] [1 2 3 4 5 6 7 8 10 11]{4} 9{3} [1 2 3 4 5 6 7 8 10 11]{3} [1 2 3 4 5 6 7 8 10 11] [1 2 3 4 5 6 7 8 10 11]{4} 9{3} [1 2 3 4 5 6 7 8 10 11]{3} [1 2 3 4 5 6 7 8 10 11] [1 2 3 4 5 6 7 8 10 11]{5} 9{2} [1 2 3 4 5 6 7 8 10 11]*) | ([1 2 3 4 5 6 7 8 10 11]* 9{4} [1 2 3 4 5 6 7 8 10 11]{4} [1 2 3 4 5 6 7 8 10 11] [1 2 3 4 5 6 7 8 10 11]{1} 9{6} [1 2 3 4 5 6 7 8 10 11]{3} [1 2 3 4 5 6 7 8 10 11] [1 2 3 4 5 6 7 8 10 11]{3} 9{4} [1 2 3 4 5 6 7 8 10 11]*) | ([1 2 3 4 5 6 7 8 10 11]* 9{2} [1 2 3 4 5 6 7 8 10 11]{3} [1 2 3 4 5 6 7 8 10 11] [1 2 3 4 5 6 7 8 10 11]{4} 9{3} [1 2 3 4 5 6 7 8 10 11]{3} [1 2 3 4 5 6 7 8 10 11] [1 2 3 4 5 6 7 8 10 11]{4} 9{3} [1 2 3 4 5 6 7 8 10 11]{3} [1 2 3 4 5 6 7 8 10 11] [1 2 3 4 5 6 7 8 10 11]{4} 9{3} [1 2 3 4 5 6 7 8 10 11]{3} [1 2 3 4 5 6 7 8 10 11] [1 2 3 4 5 6 7 8 10 11]{4} 9{2} [1 2 3 4 5 6 7 8 10 11]{4} [1 2 3 4 5 6 7 8 10 11] [1 2 3 4 5 6 7 8 10 11]{5} 9{1} [1 2 3 4 5 6 7 8 10 11]*) | ([1 2 3 4 5 6 7 8 10 11]* 9{4} [1 2 3 4 5 6 7 8 10 11]{3} [1 2 3 4 5 6 7 8 10 11] [1 2 3 4 5 6 7 8 10 11]{3} 9{6} [1 2 3 4 5 6 7 8 10 11]{1} [1 2 3 4 5 6 7 8 10 11] [1 2 3 4 5 6 7 8 10 11]{4} 9{4} [1 2 3 4 5 6 7 8 10 11]*) | ([1 2 3 4 5 6 7 8 10 11]* 9{1} [1 2 3 4 5 6 7 8 10 11]{5} [1 2 3 4 5 6 7 8 10 11] [1 2 3 4 5 6 7 8 10 11]{4} 9{2} [1 2 3 4 5 6 7 8 10 11]{4} [1 2 3 4 5 6 7 8 10 11] [1 2 3 4 5 6 7 8 10 11]{3} 9{3} [1 2 3 4 5 6 7 8 10 11]{4} [1 2 3 4 5 6 7 8 10 11] [1 2 3 4 5 6 7 8 10 11]{3} 9{3} [1 2 3 4 5 6 7 8 10 11]{4} [1 2 3 4 5 6 7 8 10 11] [1 2 3 4 5 6 7 8 10 11]{3} 9{3} [1 2 3 4 5 6 7 8 10 11]{4} [1 2 3 4 5 6 7 8 10 11] [1 2 3 4 5 6 7 8 10 11]{3} 9{2} [1 2 3 4 5 6 7 8 10 11]*) )",
    "( ([1 2 3 4 5 6 7 8 9 11]* 10{1} [1 2 3 4 5 6 7 8 9 11] [1 2 3 4 5 6 7 8 9 11]{7} 10{3} [1 2 3 4 5 6 7 8 9 11] [1 2 3 4 5 6 7 8 9 11]{6} 10{4} [1 2 3 4 5 6 7 8 9 11] [1 2 3 4 5 6 7 8 9 11]{8} 10{2} [1 2 3 4 5 6 7 8 9 11] [1 2 3 4 5 6 7 8 9 11]{9} 10{1} [1 2 3 4 5 6 7 8 9 11]*) | ([1 2 3 4 5 6 7 8 9 11]* 10{1} [1 2 3 4 5 6 7 8 9 11]{3} [1 2 3 4 5 6 7 8 9 11] [1 2 3 4 5 6 7 8 9 11]{6} 10{2} [1 2 3 4 5 6 7 8 9 11]{2} [1 2 3 4 5 6 7 8 9 11] [1 2 3 4 5 6 7 8 9 11]{5} 10{3} [1 2 3 4 5 6 7 8 9 11]{2} [1 2 3 4 5 6 7 8 9 11] [1 2 3 4 5 6 7 8 9 11]{4} 10{5} [1 2 3 4 5 6 7 8 9 11]*) | ([1 2 3 4 5 6 7 8 9 11]* 10{1} [1 2 3 4 5 6 7 8 9 11]{9} [1 2 3 4 5 6 7 8 9 11] 10{2} [1 2 3 4 5 6 7 8 9 11]{8} [1 2 3 4 5 6 7 8 9 11] 10{4} [1 2 3 4 5 6 7 8 9 11]{6} [1 2 3 4 5 6 7 8 9 11] 10{3} [1 2 3 4 5 6 7 8 9 11]{7} [1 2 3 4 5 6 7 8 9 11] 10{1} [1 2 3 4 5 6 7 8 9 11]*) | ([1 2 3 4 5 6 7 8 9 11]* 10{5} [1 2 3 4 5 6 7 8 9 11]{4} [1 2 3 4 5 6 7 8 9 11] [1 2 3 4 5 6 7 8 9 11]{2} 10{3} [1 2 3 4 5 6 7 8 9 11]{5} [1 2 3 4 5 6 7 8 9 11] [1 2 3 4 5 6 7 8 9 11]{2} 10{2} [1 2 3 4 5 6 7 8 9 11]{6} [1 2 3 4 5 6 7 8 9 11] [1 2 3 4 5 6 7 8 9 11]{3} 10{1} [1 2 3 4 5 6 7 8 9 11]*) | ([1 2 3 4 5 6 7 8 9 11]* 10{1} [1 2 3 4 5 6 7 8 9 11]{9} [1 2 3 4 5 6 7 8 9 11] 10{3} [1 2 3 4 5 6 7 8 9 11]{7} [1 2 3 4 5 6 7 8 9 11] 10{4} [1 2 3 4 5 6 7 8 9 11]{6} [1 2 3 4 5 6 7 8 9 11] 10{2} [1 2 3 4 5 6 7 8 9 11]{8} [1 2 3 4 5 6 7 8 9 11] 10{1} [1 2 3 4 5 6 7 8 9 11]*) | ([1 2 3 4 5 6 7 8 9 11]* 10{1} [1 2 3 4 5 6 7 8 9 11]{6} [1 2 3 4 5 6 7 8 9 11] [1 2 3 4 5 6 7 8 9 11]{2} 10{2} [1 2 3 4 5 6 7 8 9 11]{6} [1 2 3 4 5 6 7 8 9 11] [1 2 3 4 5 6 7 8 9 11]{2} 10{3} [1 2 3 4 5 6 7 8 9 11]{5} [1 2 3 4 5 6 7 8 9 11] [1 2 3 4 5 6 7 8 9 11]{1} 10{5} [1 2 3 4 5 6 7 8 9 11]*) | ([1 2 3 4 5 6 7 8 9 11]* 10{1} [1 2 3 4 5 6 7 8 9 11] [1 2 3 4 5 6 7 8 9 11]{8} 10{2} [1 2 3 4 5 6 7 8 9 11] [1 2 3 4 5 6 7 8 9 11]{6} 10{4} [1 2 3 4 5 6 7 8 9 11] [1 2 3 4 5 6 7 8 9 11]{7} 10{3} [1 2 3 4 5 6 7 8 9 11] [1 2 3 4 5 6 7 8 9 11]{9} 10{1} [1 2 3 4 5 6 7 8 9 11]*) | ([1 2 3 4 5 6 7 8 9 11]* 10{5} [1 2 3 4 5 6 7 8 9 11]{1} [1 2 3 4 5 6 7 8 9 11] [1 2 3 4 5 6 7 8 9 11]{5} 10{3} [1 2 3 4 5 6 7 8 9 11]{2} [1 2 3 4 5 6 7 8 9 11] [1 2 3 4 5 6 7 8 9 11]{6} 10{2} [1 2 3 4 5 6 7 8 9 11]{2} [1 2 3 4 5 6 7 8 9 11] [1 2 3 4 5 6 7 8 9 11]{6} 10{1} [1 2 3 4 5 6 7 8 9 11]*) )",
];
